Maximize
 0
Subject To
 epc_0!1: +61.419617089848145 y_1!1_2!1 -77.25659194197128 y_1!2_2!1 +55.41665362461066 y_1!3_2!1 +11.362273682687956 y_1!4_2!1 -9.353848984901703 y_1!5_2!1 -34.98960586092406 y_1!1_2!2 +2.5925276541005644 y_1!2_2!2 -44.6970503282639 y_1!3_2!2 +24.641981651862082 y_1!4_2!2 -99.96130586688456 y_1!5_2!2 -50.37624042534547 y_1!1_2!3 -28.62246685209628 y_1!2_2!3 -90.19824343846416 y_1!3_2!3 -62.80149965664674 y_1!4_2!3 +46.68731481810366 y_1!5_2!3 +41.37825587599852 y_1!1_2!4 -98.50999554323016 y_1!2_2!4 -21.59557893457618 y_1!3_2!4 +27.638556588710102 y_1!4_2!4 +17.741948051356076 y_1!5_2!4 +83.00301825767781 y_1!1_2!5 +6.555614554971157 y_1!2_2!5 -64.97934637451701 y_1!3_2!5 -67.01552649262301 y_1!4_2!5 +50.036119800546345 y_1!5_2!5 + lambda_0!1 - mu_0 = 0
 epc_0!2: -94.46234985919074 y_1!1_2!1 +47.961350301560856 y_1!2_2!1 +81.67641817997776 y_1!3_2!1 -23.49667301790521 y_1!4_2!1 +93.99404381522268 y_1!5_2!1 +43.58578912178635 y_1!1_2!2 -49.00447949426008 y_1!2_2!2 +37.89667252644986 y_1!3_2!2 +42.89611666918222 y_1!4_2!2 -33.53906766479871 y_1!5_2!2 -78.26086922813973 y_1!1_2!3 +45.623990000504534 y_1!2_2!3 -65.40610522161822 y_1!3_2!3 +87.85473096740245 y_1!4_2!3 +61.7029699913212 y_1!5_2!3 +74.55824232697762 y_1!1_2!4 +96.88837082935225 y_1!2_2!4 -3.5684507891780015 y_1!3_2!4 +89.78129475589802 y_1!4_2!4 -43.06869167638199 y_1!5_2!4 +27.610402666124116 y_1!1_2!5 +11.19017531581406 y_1!2_2!5 +31.845820988216843 y_1!3_2!5 -98.36768766892867 y_1!4_2!5 -20.197670372682097 y_1!5_2!5 + lambda_0!2 - mu_0 = 0
 epc_0!3: +2.8769496178939704 y_1!1_2!1 +87.05252813813445 y_1!2_2!1 +22.35881620104601 y_1!3_2!1 -99.82192433785187 y_1!4_2!1 -45.49891395836876 y_1!5_2!1 -48.66816714613365 y_1!1_2!2 -64.47512534055383 y_1!2_2!2 -15.232647489804194 y_1!3_2!2 +88.10819196320853 y_1!4_2!2 -44.65261326231447 y_1!5_2!2 -69.69084120537417 y_1!1_2!3 -43.582434281933715 y_1!2_2!3 +99.79887728619349 y_1!3_2!3 -57.132454398285674 y_1!4_2!3 +70.06731364531348 y_1!5_2!3 +5.450152270523674 y_1!1_2!4 -73.75773702595274 y_1!2_2!4 +39.59094632865967 y_1!3_2!4 +56.44040288943708 y_1!4_2!4 -44.767333889452466 y_1!5_2!4 +46.439772019983394 y_1!1_2!5 -86.55271106641433 y_1!2_2!5 -3.4114514455297638 y_1!3_2!5 -95.28501914151552 y_1!4_2!5 +25.2852242866946 y_1!5_2!5 + lambda_0!3 - mu_0 = 0
 epc_0!4: -7.101594211190005 y_1!1_2!1 -11.697764217523215 y_1!2_2!1 -84.19887470712146 y_1!3_2!1 +4.292981047648908 y_1!4_2!1 +46.576349722735245 y_1!5_2!1 -54.6529071330579 y_1!1_2!2 -53.060317592496475 y_1!2_2!2 -25.244868470923663 y_1!3_2!2 -28.708293112639026 y_1!4_2!2 +96.50934249575155 y_1!5_2!2 -6.633546988999669 y_1!1_2!3 +90.47623740687766 y_1!2_2!3 +80.11283972802659 y_1!3_2!3 -17.711788315135664 y_1!4_2!3 -2.0569345175547795 y_1!5_2!3 -56.355427372025076 y_1!1_2!4 +76.20726199761825 y_1!2_2!4 +22.640587516826855 y_1!3_2!4 -13.636387677902533 y_1!4_2!4 +69.62233691816147 y_1!5_2!4 +98.78366850780495 y_1!1_2!5 -86.19113657623001 y_1!2_2!5 +62.81564320188099 y_1!3_2!5 +80.82080564688988 y_1!4_2!5 -85.64952334955291 y_1!5_2!5 + lambda_0!4 - mu_0 = 0
 epc_0!5: +74.45115235271808 y_1!1_2!1 -13.212736846711422 y_1!2_2!1 +6.225442250768197 y_1!3_2!1 +96.64273704771841 y_1!4_2!1 +58.8906557866205 y_1!5_2!1 -88.35013766005382 y_1!1_2!2 +88.45150773540416 y_1!2_2!2 -78.778004827882 y_1!3_2!2 +68.74167021147213 y_1!4_2!2 +10.889406897996139 y_1!5_2!2 -60.29821420219936 y_1!1_2!3 -81.08309399326956 y_1!2_2!3 +6.721935794780549 y_1!3_2!3 +5.167468971527825 y_1!4_2!3 -57.33017358350787 y_1!5_2!3 -54.905403716470325 y_1!1_2!4 -69.78981251963992 y_1!2_2!4 +35.81011664456025 y_1!3_2!4 -14.18505212610664 y_1!4_2!4 +16.58304429494237 y_1!5_2!4 +96.63183454402184 y_1!1_2!5 +29.481169130708906 y_1!2_2!5 +4.660619679289198 y_1!3_2!5 +28.14610615829747 y_1!4_2!5 -73.6052056403985 y_1!5_2!5 + lambda_0!5 - mu_0 = 0
 dc_0: x_0!1 + x_0!2 + x_0!3 + x_0!4 + x_0!5 = 1
 bc_0!1: lambda_0!1 +299.76018315307806 x_0!1 <= 299.76018315307806
 bc_0!2: lambda_0!2 +299.76018315307806 x_0!2 <= 299.76018315307806
 bc_0!3: lambda_0!3 +299.76018315307806 x_0!3 <= 299.76018315307806
 bc_0!4: lambda_0!4 +299.76018315307806 x_0!4 <= 299.76018315307806
 bc_0!5: lambda_0!5 +299.76018315307806 x_0!5 <= 299.76018315307806
 sum_0!1: y_1!1_2!1 - x_1!1 - x_2!1 >= -1
 idk_0!1!1: y_1!1_2!1 - x_1!1 <= 0
 idk_0!1!2: y_1!1_2!1 - x_2!1 <= 0
 sum_0!2: y_1!2_2!1 - x_1!2 - x_2!1 >= -1
 idk_0!2!1: y_1!2_2!1 - x_1!2 <= 0
 idk_0!2!2: y_1!2_2!1 - x_2!1 <= 0
 sum_0!3: y_1!3_2!1 - x_1!3 - x_2!1 >= -1
 idk_0!3!1: y_1!3_2!1 - x_1!3 <= 0
 idk_0!3!2: y_1!3_2!1 - x_2!1 <= 0
 sum_0!4: y_1!4_2!1 - x_1!4 - x_2!1 >= -1
 idk_0!4!1: y_1!4_2!1 - x_1!4 <= 0
 idk_0!4!2: y_1!4_2!1 - x_2!1 <= 0
 sum_0!5: y_1!5_2!1 - x_1!5 - x_2!1 >= -1
 idk_0!5!1: y_1!5_2!1 - x_1!5 <= 0
 idk_0!5!2: y_1!5_2!1 - x_2!1 <= 0
 sum_0!6: y_1!1_2!2 - x_1!1 - x_2!2 >= -1
 idk_0!6!1: y_1!1_2!2 - x_1!1 <= 0
 idk_0!6!2: y_1!1_2!2 - x_2!2 <= 0
 sum_0!7: y_1!2_2!2 - x_1!2 - x_2!2 >= -1
 idk_0!7!1: y_1!2_2!2 - x_1!2 <= 0
 idk_0!7!2: y_1!2_2!2 - x_2!2 <= 0
 sum_0!8: y_1!3_2!2 - x_1!3 - x_2!2 >= -1
 idk_0!8!1: y_1!3_2!2 - x_1!3 <= 0
 idk_0!8!2: y_1!3_2!2 - x_2!2 <= 0
 sum_0!9: y_1!4_2!2 - x_1!4 - x_2!2 >= -1
 idk_0!9!1: y_1!4_2!2 - x_1!4 <= 0
 idk_0!9!2: y_1!4_2!2 - x_2!2 <= 0
 sum_0!10: y_1!5_2!2 - x_1!5 - x_2!2 >= -1
 idk_0!10!1: y_1!5_2!2 - x_1!5 <= 0
 idk_0!10!2: y_1!5_2!2 - x_2!2 <= 0
 sum_0!11: y_1!1_2!3 - x_1!1 - x_2!3 >= -1
 idk_0!11!1: y_1!1_2!3 - x_1!1 <= 0
 idk_0!11!2: y_1!1_2!3 - x_2!3 <= 0
 sum_0!12: y_1!2_2!3 - x_1!2 - x_2!3 >= -1
 idk_0!12!1: y_1!2_2!3 - x_1!2 <= 0
 idk_0!12!2: y_1!2_2!3 - x_2!3 <= 0
 sum_0!13: y_1!3_2!3 - x_1!3 - x_2!3 >= -1
 idk_0!13!1: y_1!3_2!3 - x_1!3 <= 0
 idk_0!13!2: y_1!3_2!3 - x_2!3 <= 0
 sum_0!14: y_1!4_2!3 - x_1!4 - x_2!3 >= -1
 idk_0!14!1: y_1!4_2!3 - x_1!4 <= 0
 idk_0!14!2: y_1!4_2!3 - x_2!3 <= 0
 sum_0!15: y_1!5_2!3 - x_1!5 - x_2!3 >= -1
 idk_0!15!1: y_1!5_2!3 - x_1!5 <= 0
 idk_0!15!2: y_1!5_2!3 - x_2!3 <= 0
 sum_0!16: y_1!1_2!4 - x_1!1 - x_2!4 >= -1
 idk_0!16!1: y_1!1_2!4 - x_1!1 <= 0
 idk_0!16!2: y_1!1_2!4 - x_2!4 <= 0
 sum_0!17: y_1!2_2!4 - x_1!2 - x_2!4 >= -1
 idk_0!17!1: y_1!2_2!4 - x_1!2 <= 0
 idk_0!17!2: y_1!2_2!4 - x_2!4 <= 0
 sum_0!18: y_1!3_2!4 - x_1!3 - x_2!4 >= -1
 idk_0!18!1: y_1!3_2!4 - x_1!3 <= 0
 idk_0!18!2: y_1!3_2!4 - x_2!4 <= 0
 sum_0!19: y_1!4_2!4 - x_1!4 - x_2!4 >= -1
 idk_0!19!1: y_1!4_2!4 - x_1!4 <= 0
 idk_0!19!2: y_1!4_2!4 - x_2!4 <= 0
 sum_0!20: y_1!5_2!4 - x_1!5 - x_2!4 >= -1
 idk_0!20!1: y_1!5_2!4 - x_1!5 <= 0
 idk_0!20!2: y_1!5_2!4 - x_2!4 <= 0
 sum_0!21: y_1!1_2!5 - x_1!1 - x_2!5 >= -1
 idk_0!21!1: y_1!1_2!5 - x_1!1 <= 0
 idk_0!21!2: y_1!1_2!5 - x_2!5 <= 0
 sum_0!22: y_1!2_2!5 - x_1!2 - x_2!5 >= -1
 idk_0!22!1: y_1!2_2!5 - x_1!2 <= 0
 idk_0!22!2: y_1!2_2!5 - x_2!5 <= 0
 sum_0!23: y_1!3_2!5 - x_1!3 - x_2!5 >= -1
 idk_0!23!1: y_1!3_2!5 - x_1!3 <= 0
 idk_0!23!2: y_1!3_2!5 - x_2!5 <= 0
 sum_0!24: y_1!4_2!5 - x_1!4 - x_2!5 >= -1
 idk_0!24!1: y_1!4_2!5 - x_1!4 <= 0
 idk_0!24!2: y_1!4_2!5 - x_2!5 <= 0
 sum_0!25: y_1!5_2!5 - x_1!5 - x_2!5 >= -1
 idk_0!25!1: y_1!5_2!5 - x_1!5 <= 0
 idk_0!25!2: y_1!5_2!5 - x_2!5 <= 0
 epc_1!1: -79.12701695343367 y_0!1_2!1 +5.5695436945931505 y_0!2_2!1 +62.82350521283723 y_0!3_2!1 +13.842644094666952 y_0!4_2!1 +97.44082069937298 y_0!5_2!1 -35.023935091257 y_0!1_2!2 -22.0836563888206 y_0!2_2!2 +11.486000411618846 y_0!3_2!2 +43.350454608212175 y_0!4_2!2 +88.13627029156137 y_0!5_2!2 +36.70622465638763 y_0!1_2!3 +87.93191838230265 y_0!2_2!3 -19.15382026411136 y_0!3_2!3 +63.96894941109855 y_0!4_2!3 +28.43731342065496 y_0!5_2!3 -42.598916165121906 y_0!1_2!4 -28.8501518671099 y_0!2_2!4 -92.88749723428226 y_0!3_2!4 -83.9492252244048 y_0!4_2!4 -40.50562846505501 y_0!5_2!4 +87.2102804733371 y_0!1_2!5 +4.074185160816143 y_0!2_2!5 +81.08861629717086 y_0!3_2!5 +64.51410401200107 y_0!4_2!5 +84.4704072181857 y_0!5_2!5 + lambda_1!1 - mu_1 = 0
 epc_1!2: -76.81725179397426 y_0!1_2!1 +34.52330099983038 y_0!2_2!1 -69.78831316296578 y_0!3_2!1 -45.33044406528084 y_0!4_2!1 +46.85648722406924 y_0!5_2!1 +13.802902143642214 y_0!1_2!2 +84.32781367613433 y_0!2_2!2 +85.9499698269696 y_0!3_2!2 +35.8410266488406 y_0!4_2!2 -48.782524438526266 y_0!5_2!2 -11.022246435335205 y_0!1_2!3 +83.56359470015548 y_0!2_2!3 +82.90961282623687 y_0!3_2!3 +17.961034083288197 y_0!4_2!3 +74.41582269442816 y_0!5_2!3 +38.675948590848975 y_0!1_2!4 +14.536119943108844 y_0!2_2!4 +20.653875408873375 y_0!3_2!4 +76.26761515458574 y_0!4_2!4 +0.3464902745288043 y_0!5_2!4 +19.569669893794355 y_0!1_2!5 +73.21191596938405 y_0!2_2!5 -57.597091714640605 y_0!3_2!5 +37.969284115169586 y_0!4_2!5 -75.53391340149622 y_0!5_2!5 + lambda_1!2 - mu_1 = 0
 epc_1!3: -63.12116455828929 y_0!1_2!1 +84.28692062565656 y_0!2_2!1 -38.52593774142319 y_0!3_2!1 +85.77266676341958 y_0!4_2!1 -0.1584851262750533 y_0!5_2!1 -28.199225293408887 y_0!1_2!2 +4.459797286598729 y_0!2_2!2 -71.3960263322819 y_0!3_2!2 +66.67053262808557 y_0!4_2!2 -51.26274266117055 y_0!5_2!2 +60.21994400430563 y_0!1_2!3 +14.662061702352403 y_0!2_2!3 +24.439504599883307 y_0!3_2!3 -51.52050048211756 y_0!4_2!3 +65.50976491980097 y_0!5_2!3 +16.868540531620724 y_0!1_2!4 -40.72217997401979 y_0!2_2!4 +24.52834536503714 y_0!3_2!4 +22.558393976970834 y_0!4_2!4 -85.91561280791692 y_0!5_2!4 -44.03594581749621 y_0!1_2!5 +74.31904512133289 y_0!2_2!5 +46.497886126302234 y_0!3_2!5 +10.091160636126844 y_0!4_2!5 +74.23277333273248 y_0!5_2!5 + lambda_1!3 - mu_1 = 0
 epc_1!4: -90.45500265060605 y_0!1_2!1 -87.40763320148659 y_0!2_2!1 -93.96837236114564 y_0!3_2!1 +76.32698271095333 y_0!4_2!1 -67.13313895848927 y_0!5_2!1 -5.818519700325339 y_0!1_2!2 -28.356600585488636 y_0!2_2!2 +23.751391971662585 y_0!3_2!2 +74.24436537276156 y_0!4_2!2 +26.36282368409981 y_0!5_2!2 -34.269169587531565 y_0!1_2!3 -30.864549565009796 y_0!2_2!3 +98.25989176052781 y_0!3_2!3 +63.84543181265576 y_0!4_2!3 +37.947358355965946 y_0!5_2!3 -42.87548853703078 y_0!1_2!4 -45.37785205599205 y_0!2_2!4 +2.079258791653288 y_0!3_2!4 +79.01011135245841 y_0!4_2!4 -58.53653116457727 y_0!5_2!4 +57.1417847783145 y_0!1_2!5 -98.316417888926 y_0!2_2!5 -35.47842136421298 y_0!3_2!5 +29.592899646751277 y_0!4_2!5 -67.66172955736934 y_0!5_2!5 + lambda_1!4 - mu_1 = 0
 epc_1!5: +42.51179850873575 y_0!1_2!1 -68.1615997701906 y_0!2_2!1 +18.225153365959528 y_0!3_2!1 +27.269479383730626 y_0!4_2!1 +37.731387533685165 y_0!5_2!1 +18.87330121271114 y_0!1_2!2 -6.901509956610184 y_0!2_2!2 +51.558091964760166 y_0!3_2!2 -93.3029003217418 y_0!4_2!2 -3.9371128277031318 y_0!5_2!2 +22.71669349457342 y_0!1_2!3 -72.9357610146893 y_0!2_2!3 -80.57968797166959 y_0!3_2!3 +8.02560705490201 y_0!4_2!3 +53.38402590498811 y_0!5_2!3 -52.88534976479868 y_0!1_2!4 +8.939096740257995 y_0!2_2!4 +94.42315384093544 y_0!3_2!4 +95.5485264077484 y_0!4_2!4 +15.098822370687074 y_0!5_2!4 +40.91262640017038 y_0!1_2!5 -83.18931708361312 y_0!2_2!5 -57.082883573340524 y_0!3_2!5 -82.74397810545067 y_0!4_2!5 +16.307365618299556 y_0!5_2!5 + lambda_1!5 - mu_1 = 0
 dc_1: x_1!1 + x_1!2 + x_1!3 + x_1!4 + x_1!5 = 1
 bc_1!1: lambda_1!1 +299.76018315307806 x_1!1 <= 299.76018315307806
 bc_1!2: lambda_1!2 +299.76018315307806 x_1!2 <= 299.76018315307806
 bc_1!3: lambda_1!3 +299.76018315307806 x_1!3 <= 299.76018315307806
 bc_1!4: lambda_1!4 +299.76018315307806 x_1!4 <= 299.76018315307806
 bc_1!5: lambda_1!5 +299.76018315307806 x_1!5 <= 299.76018315307806
 sum_1!1: y_0!1_2!1 - x_0!1 - x_2!1 >= -1
 idk_1!1!0: y_0!1_2!1 - x_0!1 <= 0
 idk_1!1!2: y_0!1_2!1 - x_2!1 <= 0
 sum_1!2: y_0!2_2!1 - x_0!2 - x_2!1 >= -1
 idk_1!2!0: y_0!2_2!1 - x_0!2 <= 0
 idk_1!2!2: y_0!2_2!1 - x_2!1 <= 0
 sum_1!3: y_0!3_2!1 - x_0!3 - x_2!1 >= -1
 idk_1!3!0: y_0!3_2!1 - x_0!3 <= 0
 idk_1!3!2: y_0!3_2!1 - x_2!1 <= 0
 sum_1!4: y_0!4_2!1 - x_0!4 - x_2!1 >= -1
 idk_1!4!0: y_0!4_2!1 - x_0!4 <= 0
 idk_1!4!2: y_0!4_2!1 - x_2!1 <= 0
 sum_1!5: y_0!5_2!1 - x_0!5 - x_2!1 >= -1
 idk_1!5!0: y_0!5_2!1 - x_0!5 <= 0
 idk_1!5!2: y_0!5_2!1 - x_2!1 <= 0
 sum_1!6: y_0!1_2!2 - x_0!1 - x_2!2 >= -1
 idk_1!6!0: y_0!1_2!2 - x_0!1 <= 0
 idk_1!6!2: y_0!1_2!2 - x_2!2 <= 0
 sum_1!7: y_0!2_2!2 - x_0!2 - x_2!2 >= -1
 idk_1!7!0: y_0!2_2!2 - x_0!2 <= 0
 idk_1!7!2: y_0!2_2!2 - x_2!2 <= 0
 sum_1!8: y_0!3_2!2 - x_0!3 - x_2!2 >= -1
 idk_1!8!0: y_0!3_2!2 - x_0!3 <= 0
 idk_1!8!2: y_0!3_2!2 - x_2!2 <= 0
 sum_1!9: y_0!4_2!2 - x_0!4 - x_2!2 >= -1
 idk_1!9!0: y_0!4_2!2 - x_0!4 <= 0
 idk_1!9!2: y_0!4_2!2 - x_2!2 <= 0
 sum_1!10: y_0!5_2!2 - x_0!5 - x_2!2 >= -1
 idk_1!10!0: y_0!5_2!2 - x_0!5 <= 0
 idk_1!10!2: y_0!5_2!2 - x_2!2 <= 0
 sum_1!11: y_0!1_2!3 - x_0!1 - x_2!3 >= -1
 idk_1!11!0: y_0!1_2!3 - x_0!1 <= 0
 idk_1!11!2: y_0!1_2!3 - x_2!3 <= 0
 sum_1!12: y_0!2_2!3 - x_0!2 - x_2!3 >= -1
 idk_1!12!0: y_0!2_2!3 - x_0!2 <= 0
 idk_1!12!2: y_0!2_2!3 - x_2!3 <= 0
 sum_1!13: y_0!3_2!3 - x_0!3 - x_2!3 >= -1
 idk_1!13!0: y_0!3_2!3 - x_0!3 <= 0
 idk_1!13!2: y_0!3_2!3 - x_2!3 <= 0
 sum_1!14: y_0!4_2!3 - x_0!4 - x_2!3 >= -1
 idk_1!14!0: y_0!4_2!3 - x_0!4 <= 0
 idk_1!14!2: y_0!4_2!3 - x_2!3 <= 0
 sum_1!15: y_0!5_2!3 - x_0!5 - x_2!3 >= -1
 idk_1!15!0: y_0!5_2!3 - x_0!5 <= 0
 idk_1!15!2: y_0!5_2!3 - x_2!3 <= 0
 sum_1!16: y_0!1_2!4 - x_0!1 - x_2!4 >= -1
 idk_1!16!0: y_0!1_2!4 - x_0!1 <= 0
 idk_1!16!2: y_0!1_2!4 - x_2!4 <= 0
 sum_1!17: y_0!2_2!4 - x_0!2 - x_2!4 >= -1
 idk_1!17!0: y_0!2_2!4 - x_0!2 <= 0
 idk_1!17!2: y_0!2_2!4 - x_2!4 <= 0
 sum_1!18: y_0!3_2!4 - x_0!3 - x_2!4 >= -1
 idk_1!18!0: y_0!3_2!4 - x_0!3 <= 0
 idk_1!18!2: y_0!3_2!4 - x_2!4 <= 0
 sum_1!19: y_0!4_2!4 - x_0!4 - x_2!4 >= -1
 idk_1!19!0: y_0!4_2!4 - x_0!4 <= 0
 idk_1!19!2: y_0!4_2!4 - x_2!4 <= 0
 sum_1!20: y_0!5_2!4 - x_0!5 - x_2!4 >= -1
 idk_1!20!0: y_0!5_2!4 - x_0!5 <= 0
 idk_1!20!2: y_0!5_2!4 - x_2!4 <= 0
 sum_1!21: y_0!1_2!5 - x_0!1 - x_2!5 >= -1
 idk_1!21!0: y_0!1_2!5 - x_0!1 <= 0
 idk_1!21!2: y_0!1_2!5 - x_2!5 <= 0
 sum_1!22: y_0!2_2!5 - x_0!2 - x_2!5 >= -1
 idk_1!22!0: y_0!2_2!5 - x_0!2 <= 0
 idk_1!22!2: y_0!2_2!5 - x_2!5 <= 0
 sum_1!23: y_0!3_2!5 - x_0!3 - x_2!5 >= -1
 idk_1!23!0: y_0!3_2!5 - x_0!3 <= 0
 idk_1!23!2: y_0!3_2!5 - x_2!5 <= 0
 sum_1!24: y_0!4_2!5 - x_0!4 - x_2!5 >= -1
 idk_1!24!0: y_0!4_2!5 - x_0!4 <= 0
 idk_1!24!2: y_0!4_2!5 - x_2!5 <= 0
 sum_1!25: y_0!5_2!5 - x_0!5 - x_2!5 >= -1
 idk_1!25!0: y_0!5_2!5 - x_0!5 <= 0
 idk_1!25!2: y_0!5_2!5 - x_2!5 <= 0
 epc_2!1: +92.1646003214677 y_0!1_1!1 +71.04283115467933 y_0!2_1!1 +55.534983665220864 y_0!3_1!1 -67.96099791359032 y_0!4_1!1 +55.23442441830272 y_0!5_1!1 -21.281010845169263 y_0!1_1!2 +47.52308530890724 y_0!2_1!2 -18.721251924196267 y_0!3_1!2 +69.68857176981723 y_0!4_1!2 +59.385597931201914 y_0!5_1!2 -81.02432354527538 y_0!1_1!3 -91.09317739982845 y_0!2_1!3 +10.046018147781211 y_0!3_1!3 -6.757936050049679 y_0!4_1!3 -57.47812946907005 y_0!5_1!3 -9.609305258419056 y_0!1_1!4 +56.61402885422254 y_0!2_1!4 -61.670447899863134 y_0!3_1!4 -41.213635158801566 y_0!4_1!4 +45.16939504133549 y_0!5_1!4 -28.77867535432324 y_0!1_1!5 +54.439282972727284 y_0!2_1!5 -94.25219025852296 y_0!3_1!5 -70.86935128185962 y_0!4_1!5 +38.976998622612825 y_0!5_1!5 + lambda_2!1 - mu_2 = 0
 epc_2!2: -37.893719631146205 y_0!1_1!1 +21.63939619843063 y_0!2_1!1 -21.691778619852272 y_0!3_1!1 +89.37915523541923 y_0!4_1!1 +80.92079910358257 y_0!5_1!1 +49.26644447015434 y_0!1_1!2 -53.82396786742474 y_0!2_1!2 -62.36375452011449 y_0!3_1!2 +98.61616588343395 y_0!4_1!2 +19.029730164711196 y_0!5_1!2 +31.017431580765788 y_0!1_1!3 +8.353308014171887 y_0!2_1!3 +73.3683114956088 y_0!3_1!3 +31.107513397819247 y_0!4_1!3 +87.69937474135668 y_0!5_1!3 +18.774180397992055 y_0!1_1!4 +66.46889353684259 y_0!2_1!4 +94.16317892376361 y_0!3_1!4 +59.782997956203246 y_0!4_1!4 +7.559933188870943 y_0!5_1!4 -58.98958828505678 y_0!1_1!5 -91.39052983391012 y_0!2_1!5 +53.2534255840163 y_0!3_1!5 +97.62286711597764 y_0!4_1!5 +44.44830503215755 y_0!5_1!5 + lambda_2!2 - mu_2 = 0
 epc_2!3: -93.12556349872384 y_0!1_1!1 -97.746544901189 y_0!2_1!1 -22.175659615471318 y_0!3_1!1 -81.11838855970854 y_0!4_1!1 +81.27818147149543 y_0!5_1!1 -49.94286138256192 y_0!1_1!2 -21.616111503451506 y_0!2_1!2 -47.37971760353068 y_0!3_1!2 -57.95636937245159 y_0!4_1!2 +85.12087728386462 y_0!5_1!2 -1.3639080698277155 y_0!1_1!3 +0.08380827578456262 y_0!2_1!3 -46.37145467222388 y_0!3_1!3 +32.40133526480486 y_0!4_1!3 +23.310771385687417 y_0!5_1!3 +54.302476476808835 y_0!1_1!4 -3.0198417160846276 y_0!2_1!4 -95.76915487273968 y_0!3_1!4 -65.19899068410449 y_0!4_1!4 +57.2689410159459 y_0!5_1!4 -1.5222626576553608 y_0!1_1!5 +62.892701526926174 y_0!2_1!5 -6.077193842418737 y_0!3_1!5 +78.1145933863892 y_0!4_1!5 +53.24257871660046 y_0!5_1!5 + lambda_2!3 - mu_2 = 0
 epc_2!4: +38.64019660825676 y_0!1_1!1 -79.541058703256 y_0!2_1!1 -22.438413553397908 y_0!3_1!1 -48.84109613342809 y_0!4_1!1 -17.74508486058744 y_0!5_1!1 -42.681057099895824 y_0!1_1!2 -90.67199970177846 y_0!2_1!2 -11.636744999797983 y_0!3_1!2 -89.65876089603222 y_0!4_1!2 +48.435972990975216 y_0!5_1!2 -14.859737568441119 y_0!1_1!3 -84.87600950560011 y_0!2_1!3 +24.4056930437565 y_0!3_1!3 -99.4394785530348 y_0!4_1!3 -50.266628995028604 y_0!5_1!3 +32.94658200945736 y_0!1_1!4 +51.371263740143974 y_0!2_1!4 +32.89989911644 y_0!3_1!4 -24.303850864258507 y_0!4_1!4 +9.40449645673749 y_0!5_1!4 +63.528407134290745 y_0!1_1!5 -53.9083859306877 y_0!2_1!5 +95.24520863803795 y_0!3_1!5 -71.39055729234221 y_0!4_1!5 -9.973986627026193 y_0!5_1!5 + lambda_2!4 - mu_2 = 0
 epc_2!5: +63.287627301581495 y_0!1_1!1 -63.01198451363772 y_0!2_1!1 +38.39887467858111 y_0!3_1!1 +29.857140505470028 y_0!4_1!1 -88.83426047698231 y_0!5_1!1 -69.53814877421843 y_0!1_1!2 -7.767270879758016 y_0!2_1!2 +17.89595593725457 y_0!3_1!2 -82.52667581601445 y_0!4_1!2 -20.287905984746885 y_0!5_1!2 -85.5446572856581 y_0!1_1!3 +80.89381577016903 y_0!2_1!3 +4.247615505727012 y_0!3_1!3 -10.60011757949944 y_0!4_1!3 -58.00733324051117 y_0!5_1!3 +49.444010005316585 y_0!1_1!4 +52.146034307972 y_0!2_1!4 -47.094378851531715 y_0!3_1!4 +13.718879462617295 y_0!4_1!4 +64.77625128216664 y_0!5_1!4 -98.64118598185792 y_0!1_1!5 -18.378469277659065 y_0!2_1!5 -9.35937163289043 y_0!3_1!5 +35.84356982170149 y_0!4_1!5 +38.365532380095914 y_0!5_1!5 + lambda_2!5 - mu_2 = 0
 dc_2: x_2!1 + x_2!2 + x_2!3 + x_2!4 + x_2!5 = 1
 bc_2!1: lambda_2!1 +299.76018315307806 x_2!1 <= 299.76018315307806
 bc_2!2: lambda_2!2 +299.76018315307806 x_2!2 <= 299.76018315307806
 bc_2!3: lambda_2!3 +299.76018315307806 x_2!3 <= 299.76018315307806
 bc_2!4: lambda_2!4 +299.76018315307806 x_2!4 <= 299.76018315307806
 bc_2!5: lambda_2!5 +299.76018315307806 x_2!5 <= 299.76018315307806
 sum_2!1: y_0!1_1!1 - x_0!1 - x_1!1 >= -1
 idk_2!1!0: y_0!1_1!1 - x_0!1 <= 0
 idk_2!1!1: y_0!1_1!1 - x_1!1 <= 0
 sum_2!2: y_0!2_1!1 - x_0!2 - x_1!1 >= -1
 idk_2!2!0: y_0!2_1!1 - x_0!2 <= 0
 idk_2!2!1: y_0!2_1!1 - x_1!1 <= 0
 sum_2!3: y_0!3_1!1 - x_0!3 - x_1!1 >= -1
 idk_2!3!0: y_0!3_1!1 - x_0!3 <= 0
 idk_2!3!1: y_0!3_1!1 - x_1!1 <= 0
 sum_2!4: y_0!4_1!1 - x_0!4 - x_1!1 >= -1
 idk_2!4!0: y_0!4_1!1 - x_0!4 <= 0
 idk_2!4!1: y_0!4_1!1 - x_1!1 <= 0
 sum_2!5: y_0!5_1!1 - x_0!5 - x_1!1 >= -1
 idk_2!5!0: y_0!5_1!1 - x_0!5 <= 0
 idk_2!5!1: y_0!5_1!1 - x_1!1 <= 0
 sum_2!6: y_0!1_1!2 - x_0!1 - x_1!2 >= -1
 idk_2!6!0: y_0!1_1!2 - x_0!1 <= 0
 idk_2!6!1: y_0!1_1!2 - x_1!2 <= 0
 sum_2!7: y_0!2_1!2 - x_0!2 - x_1!2 >= -1
 idk_2!7!0: y_0!2_1!2 - x_0!2 <= 0
 idk_2!7!1: y_0!2_1!2 - x_1!2 <= 0
 sum_2!8: y_0!3_1!2 - x_0!3 - x_1!2 >= -1
 idk_2!8!0: y_0!3_1!2 - x_0!3 <= 0
 idk_2!8!1: y_0!3_1!2 - x_1!2 <= 0
 sum_2!9: y_0!4_1!2 - x_0!4 - x_1!2 >= -1
 idk_2!9!0: y_0!4_1!2 - x_0!4 <= 0
 idk_2!9!1: y_0!4_1!2 - x_1!2 <= 0
 sum_2!10: y_0!5_1!2 - x_0!5 - x_1!2 >= -1
 idk_2!10!0: y_0!5_1!2 - x_0!5 <= 0
 idk_2!10!1: y_0!5_1!2 - x_1!2 <= 0
 sum_2!11: y_0!1_1!3 - x_0!1 - x_1!3 >= -1
 idk_2!11!0: y_0!1_1!3 - x_0!1 <= 0
 idk_2!11!1: y_0!1_1!3 - x_1!3 <= 0
 sum_2!12: y_0!2_1!3 - x_0!2 - x_1!3 >= -1
 idk_2!12!0: y_0!2_1!3 - x_0!2 <= 0
 idk_2!12!1: y_0!2_1!3 - x_1!3 <= 0
 sum_2!13: y_0!3_1!3 - x_0!3 - x_1!3 >= -1
 idk_2!13!0: y_0!3_1!3 - x_0!3 <= 0
 idk_2!13!1: y_0!3_1!3 - x_1!3 <= 0
 sum_2!14: y_0!4_1!3 - x_0!4 - x_1!3 >= -1
 idk_2!14!0: y_0!4_1!3 - x_0!4 <= 0
 idk_2!14!1: y_0!4_1!3 - x_1!3 <= 0
 sum_2!15: y_0!5_1!3 - x_0!5 - x_1!3 >= -1
 idk_2!15!0: y_0!5_1!3 - x_0!5 <= 0
 idk_2!15!1: y_0!5_1!3 - x_1!3 <= 0
 sum_2!16: y_0!1_1!4 - x_0!1 - x_1!4 >= -1
 idk_2!16!0: y_0!1_1!4 - x_0!1 <= 0
 idk_2!16!1: y_0!1_1!4 - x_1!4 <= 0
 sum_2!17: y_0!2_1!4 - x_0!2 - x_1!4 >= -1
 idk_2!17!0: y_0!2_1!4 - x_0!2 <= 0
 idk_2!17!1: y_0!2_1!4 - x_1!4 <= 0
 sum_2!18: y_0!3_1!4 - x_0!3 - x_1!4 >= -1
 idk_2!18!0: y_0!3_1!4 - x_0!3 <= 0
 idk_2!18!1: y_0!3_1!4 - x_1!4 <= 0
 sum_2!19: y_0!4_1!4 - x_0!4 - x_1!4 >= -1
 idk_2!19!0: y_0!4_1!4 - x_0!4 <= 0
 idk_2!19!1: y_0!4_1!4 - x_1!4 <= 0
 sum_2!20: y_0!5_1!4 - x_0!5 - x_1!4 >= -1
 idk_2!20!0: y_0!5_1!4 - x_0!5 <= 0
 idk_2!20!1: y_0!5_1!4 - x_1!4 <= 0
 sum_2!21: y_0!1_1!5 - x_0!1 - x_1!5 >= -1
 idk_2!21!0: y_0!1_1!5 - x_0!1 <= 0
 idk_2!21!1: y_0!1_1!5 - x_1!5 <= 0
 sum_2!22: y_0!2_1!5 - x_0!2 - x_1!5 >= -1
 idk_2!22!0: y_0!2_1!5 - x_0!2 <= 0
 idk_2!22!1: y_0!2_1!5 - x_1!5 <= 0
 sum_2!23: y_0!3_1!5 - x_0!3 - x_1!5 >= -1
 idk_2!23!0: y_0!3_1!5 - x_0!3 <= 0
 idk_2!23!1: y_0!3_1!5 - x_1!5 <= 0
 sum_2!24: y_0!4_1!5 - x_0!4 - x_1!5 >= -1
 idk_2!24!0: y_0!4_1!5 - x_0!4 <= 0
 idk_2!24!1: y_0!4_1!5 - x_1!5 <= 0
 sum_2!25: y_0!5_1!5 - x_0!5 - x_1!5 >= -1
 idk_2!25!0: y_0!5_1!5 - x_0!5 <= 0
 idk_2!25!1: y_0!5_1!5 - x_1!5 <= 0
Bounds
 mu_0 free
 mu_1 free
 mu_2 free
Binary
 x_0!1 x_0!2 x_0!3 x_0!4 x_0!5 x_1!1 x_1!2 x_1!3 x_1!4 x_1!5 x_2!1 x_2!2 x_2!3 x_2!4 x_2!5
End
